* #variable= 16 #constraint= 15
1 y_x1_5 1 y_x1_6 1 y_x1_7 1 y_x1_8 1 y_x1_9 >= 1 ;
1 y_x2_5 1 y_x2_6 1 y_x2_7 1 y_x2_8 1 y_x2_9 >= 1 ;
1 y_x3_8 1 y_x3_9 >= 1 ;
1 y_x4_8 1 y_x4_9 >= 1 ;
1 y_x5_8 1 y_x5_9 >= 1 ;
-1 y_x1_5 -1 y_x1_6 -1 y_x1_7 -1 y_x1_8 -1 y_x1_9 >= -1 ;
-1 y_x2_5 -1 y_x2_6 -1 y_x2_7 -1 y_x2_8 -1 y_x2_9 >= -1 ;
-1 y_x3_8 -1 y_x3_9 >= -1 ;
-1 y_x4_8 -1 y_x4_9 >= -1 ;
-1 y_x5_8 -1 y_x5_9 >= -1 ;
-1 y_x1_5 -1 y_x2_5 >= -1 ;
-1 y_x1_6 -1 y_x2_6 >= -1 ;
-1 y_x1_7 -1 y_x2_7 >= -1 ;
-1 y_x1_8 -1 y_x2_8 -1 y_x3_8 -1 y_x4_8 -1 y_x5_8 >= -1 ;
-1 y_x1_9 -1 y_x2_9 -1 y_x3_9 -1 y_x4_9 -1 y_x5_9 >= -1 ;
